units metal
boundary p p p

atom_style	atomic

read_data Data/zeolite_zsm5.data

pair_style vashishta/table 10000 0.5
pair_coeff		* * Data/SiO2.vashishta Si O
mass 1 28.08
mass 2 15.9994

velocity all create 2000.0 277387 mom yes

fix nvt all nvt temp 2000 2000 1.0
timestep 0.002
run 1