#/atom 1 silicon
#/atom 2 oxygen
#/bond 1 2 2.6

units                   metal
boundary                p p p
atom_style              atomic

#read_data 3_quenched.data
read_data Scripts/Vashishta/sio2_porous_0.75.data

pair_style  vashishta
pair_coeff  * * Scripts/Vashishta/SiO2.vashishta Si O
mass            1 28.08
mass            2 15.9994

velocity all create 1000 376847 loop geom

fix nvt all nvt temp 3000 3000 0.2
timestep            0.002
minimize 1.0e-4 1.0e-6 100 1000

run 0